Traveling Salesman Problem/TSP_generados/Aleatorio1620391402_15.tsp
NAME: Aleatorio1620391402_15.tsp
COMMENT: Randomly generated scenario
TYPE: TSP
DIMENSION: 15
EDGE_WEIGHT_TYPE: ATT
NODE_COORD_SECTION
1 20.47 47.43
2 15.88 30.59
3 17.32 47.95
4 14.6 20.6
5 23.19 15.64
6 42.24 9.15
7 42.04 44.29
8 10.42 29.63
9 37.57 43.25
10 24.62 42.29
11 48.64 9.56
12 41.31 23.82
13 29.04 5.95
14 34.07 39.2
15 39.57 38.42
