Traveling Salesman Problem/TSP_generados/Aleatorio1620391402_15.opt.tour
NAME: Aleatorio1620391402_15.opt.tour
COMMENT: Optimal solution for Aleatorio1620391402_15 (140.9363159018903)
TYPE: TOUR
DIMENSION: 15
TOUR_SECTION
1 3 2 8 4 5 13 6 11 12 15 7 9 14 10
-1
EOF
